
--- Job Untitled_3.gms Start 01/26/22 02:52:55 37.1.0 r07954d5 WEX-WEI x86 64bit/MS Windows
--- Applying:
    C:\GAMS\37\gmsprmNT.txt
--- GAMS Parameters defined
    Input C:\projects\OptimizationModels\GraphColoring\Untitled_3.gms
    PageWidth 140
    PageSize 0
    PageContr 3
    Action CE
    ScrDir C:\projects\OptimizationModels\GraphColoring\225a\
    SysDir C:\GAMS\37\
    WorkDir C:\projects\OptimizationModels\GraphColoring\
    LogOption 3
    DFormat 0
    TFormat 0
    ErrorLog 99
    IDE 1
Licensee: Eval License                                   G211206|0002CO-GEN
          Amsterdam Optimization Modeling Group,                     DCE378
          C:\Users\erwin\OneDrive\Documents\GAMS\gamslice.txt
          License Admin: Erwin Kalvelagen, info@amsterdamoptimization.com  
          Evaluation license: Not for commercial or production use
Processor information: 1 socket(s), 8 core(s), and 16 thread(s) available
GAMS 37.1.0   Copyright (C) 1987-2021 GAMS Development. All rights reserved
--- Starting compilation
--- Untitled_3.gms(101) 3 Mb
--- Starting execution: elapsed 0:00:00.056
--- Untitled_3.gms(65) 4 Mb
--- Generating MIQCP model color1
--- Untitled_3.gms(66) 6 Mb
---   51 rows  251 columns  501 non-zeroes
---   6,422 nl-code  250 nl-non-zeroes
---   250 discrete-columns
--- Untitled_3.gms(66) 4 Mb
--- Executing CPLEX (Solvelink=2): elapsed 0:00:00.114

IBM ILOG CPLEX   37.1.0 r07954d5 Released Nov 11, 2021 WEI x86 64bit/MS Window

--- GAMS/Cplex Link licensed for continuous and discrete problems.
--- GMO setup time: 0.00s
--- GMO memory 0.62 Mb (peak 0.65 Mb)
--- Dictionary memory 0.00 Mb
--- Cplex 20.1.0.1 link memory 0.01 Mb (peak 0.07 Mb)
--- Starting Cplex

Version identifier: 20.1.0.1 | 2021-04-07 | 3a818710c
CPXPARAM_Advance                                 0
CPXPARAM_Threads                                 16
CPXPARAM_Parallel                                1
CPXPARAM_MIP_Display                             4
CPXPARAM_MIP_Pool_Capacity                       0
CPXPARAM_MIP_Tolerances_AbsMIPGap                0
CPXPARAM_MIP_Tolerances_MIPGap                   0
Generic callback                                 0x50
Found incumbent of value 166.366290 after 0.00 sec. (0.04 ticks)
Tried aggregator 1 time.
MIP Presolve eliminated 0 rows and 1 columns.
MIP Presolve added 3210 rows and 1605 columns.
Reduced MIP has 3260 rows, 1855 columns, and 6670 nonzeros.
Reduced MIP has 1855 binaries, 0 generals, 0 SOSs, and 0 indicators.
Presolve time = 0.03 sec. (0.57 ticks)
Probing time = 0.00 sec. (0.78 ticks)
Tried aggregator 1 time.
Detecting symmetries...
MIP Presolve eliminated 1605 rows and 0 columns.
Reduced MIP has 1655 rows, 1855 columns, and 5065 nonzeros.
Reduced MIP has 1855 binaries, 0 generals, 0 SOSs, and 0 indicators.
Presolve time = 0.00 sec. (5.51 ticks)
Classifier predicts products in MIQP should be linearized.
Probing time = 0.00 sec. (0.68 ticks)
Clique table members: 50.
MIP emphasis: balance optimality and feasibility.
MIP search method: dynamic search.
Parallel mode: deterministic, using up to 16 threads.
Parallel mode: deterministic, using up to 3 threads for parallel tasks at root LP.
Parallel mode: deterministic, using up to 13 threads for concurrent optimization:
 * Starting dual Simplex on 1 thread...
 * Starting Barrier on 11 threads...
 * Starting primal Simplex on 1 thread...
Tried aggregator 1 time.
No LP presolve or aggregator reductions.
Presolve time = 0.00 sec. (0.73 ticks)
Initializing dual steep norms . . .

Iteration log . . .
Iteration:     1   Dual objective     =             0.000000

Dual simplex solved model.

Root relaxation solution time = 0.02 sec. (2.75 ticks)

        Nodes                                         Cuts/
   Node  Left     Objective  IInf  Best Integer    Best Bound    ItCnt     Gap

*     0+    0                          166.3663        0.0000           100.00%
Found incumbent of value 166.366290 after 0.06 sec. (13.60 ticks)
*     0+    0                            8.8909        0.0000           100.00%
Found incumbent of value 8.890897 after 0.06 sec. (13.61 ticks)
*     0+    0                            7.2948        0.0000           100.00%
Found incumbent of value 7.294827 after 0.06 sec. (13.62 ticks)
*     0+    0                            5.6881        0.0000           100.00%
Found incumbent of value 5.688108 after 0.06 sec. (13.62 ticks)
      0     0        0.0000   100        5.6881        0.0000       93  100.00%
*     0+    0                            1.5233        0.0000           100.00%
Found incumbent of value 1.523288 after 0.33 sec. (286.07 ticks)
      0     2        0.0000    97        1.5233        0.0000      152  100.00%
Elapsed time = 0.36 sec. (291.47 ticks, tree = 0.02 MB)
*   382   265      integral     0        1.4492        0.0000    18189  100.00%
                                                 ZeroHalf: 12                  
Found incumbent of value 1.449213 after 0.47 sec. (384.35 ticks)
*   775   541      integral     0        1.3939        0.0000    37803  100.00%
Found incumbent of value 1.393885 after 0.53 sec. (440.68 ticks)
*   867   615      integral     0        0.6644        0.0000    44219  100.00%
                                                  ZeroHalf: 1                  
Found incumbent of value 0.664356 after 0.55 sec. (451.26 ticks)
*  1693   621      integral     0        0.6544        0.0000    74446  100.00%
                                                  ZeroHalf: 2                  
Found incumbent of value 0.654438 after 0.66 sec. (529.97 ticks)
   1693   632        0.4380    85        0.6544        0.0000    75308  100.00%
*  3457  1361      integral     0        0.6509        0.0749   141736   88.49%
                                                  ZeroHalf: 2                  
Found incumbent of value 0.650887 after 0.88 sec. (708.01 ticks)
*  5012  1828      integral     0        0.6215        0.2032   202221   67.30%
Found incumbent of value 0.621507 after 1.03 sec. (840.62 ticks)
   6031  1811        cutoff              0.6215        0.2534   241345   59.23%
                                                  ZeroHalf: 2                  

Performing restart 1

Repeating presolve.
Tried aggregator 2 times.
MIP Presolve eliminated 237 rows and 706 columns.
MIP Presolve modified 80 coefficients.
Aggregator did 9 substitutions.
Reduced MIP has 1409 rows, 1140 columns, and 3940 nonzeros.
Reduced MIP has 1140 binaries, 0 generals, 0 SOSs, and 0 indicators.
Presolve time = 0.02 sec. (4.19 ticks)
Tried aggregator 1 time.
Reduced MIP has 1409 rows, 1140 columns, and 3940 nonzeros.
Reduced MIP has 1140 binaries, 0 generals, 0 SOSs, and 0 indicators.
Presolve time = 0.00 sec. (3.69 ticks)
Represolve time = 0.02 sec. (12.15 ticks)
Tried aggregator 1 time.
LP Presolve eliminated 5 rows and 0 columns.
Reduced LP has 1423 rows, 1140 columns, and 4384 nonzeros.
Presolve time = 0.00 sec. (0.71 ticks)
Initializing dual steep norms . . .

Iteration log . . .
Iteration:     1   Dual objective     =             0.000000
Iteration:    77   Dual objective     =             0.000000
Perturbation started.
Iteration:   101   Dual objective     =             0.000000
Iteration:   163   Dual objective     =             0.000004
Iteration:   225   Dual objective     =             0.000007
Removing perturbation.
Initializing dual steep norms . . .
   6477     2        0.0000   139        0.6215        0.2810   274125   54.79%
   6516    28        0.2575    76        0.6215        0.2810   277030   54.79%
   7375   411        0.2609    81        0.6215        0.2810   325645   54.79%
                                                  ZeroHalf: 1                  
*  7907   613      integral     0        0.5790        0.2810   347189   51.47%
Found incumbent of value 0.579034 after 2.48 sec. (2018.17 ticks)
   8743   795        cutoff              0.5790        0.2810   383626   51.47%
                                                  ZeroHalf: 1                  
  10342   420        cutoff              0.5790        0.3263   460231   43.66%
                                                  ZeroHalf: 2                  

Zero-half cuts applied:  7

Root node processing (before b&c):
  Real time             =    0.34 sec. (290.66 ticks)
Parallel b&c, 16 threads:
  Real time             =    2.72 sec. (2181.23 ticks)
  Sync time (average)   =    0.59 sec.
  Wait time (average)   =    0.00 sec.
                          ------------
Total (root+branch&cut) =    3.06 sec. (2471.89 ticks)

--- MIQP status (101): integer optimal solution.
--- Cplex Time: 3.06sec (det. 2471.89 ticks)

--- Fixing integer variables and solving final QP...

Version identifier: 20.1.0.1 | 2021-04-07 | 3a818710c
CPXPARAM_Advance                                 2
CPXPARAM_Threads                                 16
CPXPARAM_Parallel                                1
CPXPARAM_MIP_Display                             4
CPXPARAM_MIP_Pool_Capacity                       0
CPXPARAM_MIP_Tolerances_AbsMIPGap                0
CPXPARAM_MIP_Tolerances_MIPGap                   0
Number of nonzeros in lower triangle of Q = 1605
Using Approximate Minimum Degree ordering
Total time for automatic ordering = 0.08 sec. (0.13 ticks)
Summary statistics for factor of Q:
  Rows in Factor            = 250
  Integer space required    = 770
  Total non-zeros in factor = 4650
  Total FP ops to factor    = 113630
Note: Q in objective is not positive semi-definite.
Tried aggregator 1 time.
QP Presolve eliminated 50 rows and 251 columns.
All rows and columns eliminated.
Presolve time = 0.08 sec. (0.51 ticks)

--- Fixed MIQP status (1): optimal.
--- Cplex Time: 0.08sec (det. 0.71 ticks)


Proven optimal solution
MIP Solution:            0.579034    (476717 iterations, 10747 nodes)
Final Solve:             0.579034    (0 iterations)

Best possible:           0.579034
Absolute gap:            0.000000
Relative gap:            0.000000

--- Reading solution for model color1
--- Executing after solve: elapsed 0:00:03.372
--- Untitled_3.gms(86) 4 Mb
--- Generating MIP model color2
--- Untitled_3.gms(88) 5 Mb
---   1,656 rows  572 columns  5,387 non-zeroes
---   250 discrete-columns
***   321 relaxed-columns WARNING
--- Executing CPLEX (Solvelink=2): elapsed 0:00:03.375

IBM ILOG CPLEX   37.1.0 r07954d5 Released Nov 11, 2021 WEI x86 64bit/MS Window

--- GAMS/Cplex Link licensed for continuous and discrete problems.
--- GMO setup time: 0.00s
--- Space for names approximately 0.06 Mb
--- Use option 'names no' to turn use of names off
--- GMO memory 0.75 Mb (peak 0.76 Mb)
--- Dictionary memory 0.00 Mb
--- Cplex 20.1.0.1 link memory 0.03 Mb (peak 0.16 Mb)
--- Starting Cplex

Version identifier: 20.1.0.1 | 2021-04-07 | 3a818710c
CPXPARAM_Advance                                 0
CPXPARAM_Threads                                 16
CPXPARAM_Parallel                                1
CPXPARAM_MIP_Display                             4
CPXPARAM_MIP_Pool_Capacity                       0
CPXPARAM_MIP_Tolerances_AbsMIPGap                0
CPXPARAM_MIP_Tolerances_MIPGap                   0
Generic callback                                 0x50
Found incumbent of value 4.165526 after 0.00 sec. (0.13 ticks)
Tried aggregator 1 time.
MIP Presolve eliminated 0 rows and 1 columns.
Reduced MIP has 1655 rows, 571 columns, and 5065 nonzeros.
Reduced MIP has 250 binaries, 0 generals, 0 SOSs, and 0 indicators.
Presolve time = 0.09 sec. (2.19 ticks)
Probing time = 0.00 sec. (0.60 ticks)
Tried aggregator 1 time.
Detecting symmetries...
Reduced MIP has 1655 rows, 571 columns, and 5065 nonzeros.
Reduced MIP has 571 binaries, 0 generals, 0 SOSs, and 0 indicators.
Presolve time = 0.00 sec. (3.56 ticks)
Probing time = 0.00 sec. (0.60 ticks)
Clique table members: 50.
MIP emphasis: balance optimality and feasibility.
MIP search method: dynamic search.
Parallel mode: deterministic, using up to 16 threads.
Parallel mode: deterministic, using up to 3 threads for parallel tasks at root LP.
Parallel mode: deterministic, using up to 13 threads for concurrent optimization:
 * Starting dual Simplex on 1 thread...
 * Starting Barrier on 11 threads...
 * Starting primal Simplex on 1 thread...
Tried aggregator 1 time.
No LP presolve or aggregator reductions.
Presolve time = 0.02 sec. (0.59 ticks)
Initializing dual steep norms . . .

Iteration log . . .
Iteration:     1   Dual objective     =             0.000000
Perturbation started.
Iteration:    51   Dual objective     =             0.000000
Removing perturbation.

Dual simplex solved model.

Root relaxation solution time = 0.02 sec. (3.23 ticks)

        Nodes                                         Cuts/
   Node  Left     Objective  IInf  Best Integer    Best Bound    ItCnt     Gap

*     0+    0                            4.1655        0.0000           100.00%
Found incumbent of value 4.165526 after 0.11 sec. (12.37 ticks)
*     0+    0                            4.0440        0.0000           100.00%
Found incumbent of value 4.043971 after 0.11 sec. (12.37 ticks)
*     0+    0                            3.6854        0.0000           100.00%
Found incumbent of value 3.685422 after 0.11 sec. (12.37 ticks)
*     0+    0                            3.5639        0.0000           100.00%
Found incumbent of value 3.563867 after 0.11 sec. (12.37 ticks)
*     0+    0                            3.3562        0.0000           100.00%
Found incumbent of value 3.356177 after 0.11 sec. (12.38 ticks)
*     0+    0                            3.2918        0.0000           100.00%
Found incumbent of value 3.291781 after 0.11 sec. (12.38 ticks)
*     0+    0                            2.8062        0.0000           100.00%
Found incumbent of value 2.806170 after 0.11 sec. (12.38 ticks)
      0     0        0.0000   100        2.8062        0.0000       55  100.00%
*     0+    0                            1.1228        0.0000           100.00%
Found incumbent of value 1.122805 after 0.17 sec. (102.96 ticks)
      0     2        0.0000    54        1.1228        0.0000       67  100.00%
Elapsed time = 0.41 sec. (301.09 ticks, tree = 0.02 MB)
*   309   227      integral     0        0.9267        0.0000    16007  100.00%
                                                     Cuts: 16                  
Found incumbent of value 0.926660 after 0.48 sec. (374.32 ticks)
*   326   244      integral     0        0.8057        0.0000    17544  100.00%
Found incumbent of value 0.805744 after 0.48 sec. (375.84 ticks)
*   892   499      integral     0        0.6509        0.0000    42942  100.00%
                                                  ZeroHalf: 2                  
Found incumbent of value 0.650887 after 0.56 sec. (449.27 ticks)
*  1598   707      integral     0        0.5797        0.0000    63223  100.00%
                                                  ZeroHalf: 3                  
Found incumbent of value 0.579710 after 0.63 sec. (517.53 ticks)
*  2398  1169      integral     0        0.5790        0.0000   102602  100.00%
Found incumbent of value 0.579034 after 0.72 sec. (602.39 ticks)
   4784  2169        0.4902    76        0.5790        0.0000   198425  100.00%
                                                  ZeroHalf: 7                  

Performing restart 1

Repeating presolve.
Tried aggregator 2 times.
MIP Presolve eliminated 295 rows and 148 columns.
MIP Presolve modified 99 coefficients.
Aggregator did 8 substitutions.
Reduced MIP has 1352 rows, 415 columns, and 3773 nonzeros.
Reduced MIP has 415 binaries, 0 generals, 0 SOSs, and 0 indicators.
Presolve time = 0.02 sec. (3.19 ticks)
Tried aggregator 1 time.
Reduced MIP has 1352 rows, 415 columns, and 3773 nonzeros.
Reduced MIP has 415 binaries, 0 generals, 0 SOSs, and 0 indicators.
Presolve time = 0.00 sec. (2.96 ticks)
Represolve time = 0.02 sec. (8.88 ticks)
Tried aggregator 1 time.
LP Presolve eliminated 15 rows and 0 columns.
Reduced LP has 1366 rows, 415 columns, and 4237 nonzeros.
Presolve time = 0.00 sec. (0.63 ticks)
Initializing dual steep norms . . .

Iteration log . . .
Iteration:     1   Dual objective     =             0.000000
Perturbation started.
Iteration:    51   Dual objective     =             0.000000
Iteration:   125   Dual objective     =             0.000005
Iteration:   187   Dual objective     =             0.000007
Removing perturbation.
Initializing dual steep norms . . .
   6646     0        0.0000   137        0.5790   ZeroHalf: 8   300488   86.79%
   6646     0        0.0000   139        0.5790      Cuts: 98   300564   86.79%
   6646     2        0.0000    98        0.5790        0.0765   300658   86.79%
   6714    27        0.0954   124        0.5790        0.0765   302833   86.79%
   7951   676        cutoff              0.5790        0.0765   377548   86.79%
                                                  ZeroHalf: 2                  
   9106  1093        0.2366   120        0.5790        0.0765   458916   86.79%
                                                  ZeroHalf: 5                  
  10918  1060        0.2688    71        0.5790        0.1870   554862   67.71%
  12617     8        cutoff              0.5790        0.4034   650149   30.32%

Zero-half cuts applied:  8

Root node processing (before b&c):
  Real time             =    0.41 sec. (300.44 ticks)
Parallel b&c, 16 threads:
  Real time             =    2.51 sec. (2334.42 ticks)
  Sync time (average)   =    0.41 sec.
  Wait time (average)   =    0.01 sec.
                          ------------
Total (root+branch&cut) =    2.92 sec. (2634.85 ticks)

--- MIP status (101): integer optimal solution.
--- Cplex Time: 2.94sec (det. 2634.86 ticks)

--- Fixing integer variables and solving final LP...

Version identifier: 20.1.0.1 | 2021-04-07 | 3a818710c
CPXPARAM_Advance                                 2
CPXPARAM_Threads                                 16
CPXPARAM_Parallel                                1
CPXPARAM_MIP_Display                             4
CPXPARAM_MIP_Pool_Capacity                       0
CPXPARAM_MIP_Tolerances_AbsMIPGap                0
CPXPARAM_MIP_Tolerances_MIPGap                   0
Tried aggregator 1 time.
LP Presolve eliminated 1655 rows and 572 columns.
All rows and columns eliminated.
Presolve time = 0.00 sec. (0.59 ticks)

--- Fixed MIP status (1): optimal.
--- Cplex Time: 0.05sec (det. 1.03 ticks)


Proven optimal solution
MIP Solution:            0.579034    (650564 iterations, 12623 nodes)
Final Solve:             0.579034    (0 iterations)

Best possible:           0.579034
Absolute gap:            0.000000
Relative gap:            0.000000

--- Reading solution for model color2
--- Executing after solve: elapsed 0:00:06.382
--- Untitled_3.gms(100) 5 Mb
*** Status: Normal completion
--- Job Untitled_3.gms Stop 01/26/22 02:53:02 elapsed 0:00:06.383
